p cnf 646
-17 -174
-18 -177
-19 -180
-20 -183
-21 -186
-22 -189
-23 -192
-24 -195
-25 -198
-26 -201
-27 -204
-28 -207
-29 -210
-30 -213
-31 -216
-32 -219
-33 -221
-34 -223
-35 -225
-36 -227
-37 -229
-38 -231
-39 -233
-40 -235
-41 -237
-42 -239
-43 -241
-44 -243
-45 -245
-46 -247
-47 -249
-48 -251
-49 252
-50 -20
-50 32
20 -32 50
-51 20
-51 -32
-20 32 51
-52 -50
-52 -51
50 51 52
-53 -29
-53 -52
29 52 53
-54 29
-54 52
-29 -52 54
-55 -53
-55 -54
53 54 55
-56 -31
-56 -55
31 55 56
-57 31
-57 55
-31 -55 57
-58 -56
-58 -57
56 57 58
-59 -1
-59 -2
1 2 59
-60 -3
-60 -4
3 4 60
-61 -5
-61 -6
5 6 61
-62 -7
-62 -8
7 8 62
-63 -9
-63 -10
9 10 63
-64 -11
-64 -12
11 12 64
-65 -13
-65 -14
13 14 65
-66 -15
-66 -16
15 16 66
-67 59
-67 60
-59 -60 67
-68 61
-68 62
-61 -62 68
-69 63
-69 64
-63 -64 69
-70 65
-70 66
-65 -66 70
-71 67
-71 68
-67 -68 71
-72 69
-72 70
-69 -70 72
-73 71
-73 72
-71 -72 73
-74 -33
-74 -34
33 34 74
-75 -35
-75 -36
35 36 75
-76 -37
-76 -38
37 38 76
-77 -39
-77 -40
39 40 77
-78 -41
-78 -42
41 42 78
-79 -43
-79 -44
43 44 79
-80 -45
-80 -46
45 46 80
-81 -47
-81 -48
47 48 81
-82 74
-82 75
-74 -75 82
-83 76
-83 77
-76 -77 83
-84 78
-84 79
-78 -79 84
-85 80
-85 81
-80 -81 85
-86 82
-86 83
-82 -83 86
-87 84
-87 85
-84 -85 87
-88 86
-88 87
-86 -87 88
-89 33
-89 -58
-33 58 89
-90 -33
-90 58
33 -58 90
-91 -89
-91 -90
89 90 91
-92 17
-92 34
-17 -34 92
-93 -17
-93 -34
17 34 93
-94 -92
-94 -93
92 93 94
-95 18
-95 35
-18 -35 95
-96 -18
-96 -35
18 35 96
-97 -95
-97 -96
95 96 97
-98 19
-98 36
-19 -36 98
-99 -19
-99 -36
19 36 99
-100 -98
-100 -99
98 99 100
-101 20
-101 37
-20 -37 101
-102 -20
-102 -37
20 37 102
-103 -101
-103 -102
101 102 103
-104 21
-104 38
-21 -38 104
-105 -21
-105 -38
21 38 105
-106 -104
-106 -105
104 105 106
-107 22
-107 39
-22 -39 107
-108 -22
-108 -39
22 39 108
-109 -107
-109 -108
107 108 109
-110 23
-110 40
-23 -40 110
-111 -23
-111 -40
23 40 111
-112 -110
-112 -111
110 111 112
-113 24
-113 41
-24 -41 113
-114 -24
-114 -41
24 41 114
-115 -113
-115 -114
113 114 115
-116 25
-116 42
-25 -42 116
-117 -25
-117 -42
25 42 117
-118 -116
-118 -117
116 117 118
-119 26
-119 43
-26 -43 119
-120 -26
-120 -43
26 43 120
-121 -119
-121 -120
119 120 121
-122 27
-122 44
-27 -44 122
-123 -27
-123 -44
27 44 123
-124 -122
-124 -123
122 123 124
-125 28
-125 45
-28 -45 125
-126 -28
-126 -45
28 45 126
-127 -125
-127 -126
125 126 127
-128 29
-128 46
-29 -46 128
-129 -29
-129 -46
29 46 129
-130 -128
-130 -129
128 129 130
-131 30
-131 47
-30 -47 131
-132 -30
-132 -47
30 47 132
-133 -131
-133 -132
131 132 133
-134 31
-134 48
-31 -48 134
-135 -31
-135 -48
31 48 135
-136 -134
-136 -135
134 135 136
-137 -91
-137 -94
91 94 137
-138 -97
-138 -100
97 100 138
-139 -103
-139 -106
103 106 139
-140 -109
-140 -112
109 112 140
-141 -115
-141 -118
115 118 141
-142 -121
-142 -124
121 124 142
-143 -127
-143 -130
127 130 143
-144 -133
-144 -136
133 136 144
-145 137
-145 138
-137 -138 145
-146 139
-146 140
-139 -140 146
-147 141
-147 142
-141 -142 147
-148 143
-148 144
-143 -144 148
-149 145
-149 146
-145 -146 149
-150 147
-150 148
-147 -148 150
-151 149
-151 150
-149 -150 151
-152 -88
-152 151
88 -151 152
-153 49
-153 152
-49 -152 153
-154 73
-154 153
-73 -153 154
-155 -17
-155 58
17 -58 155
-156 -18
-156 -19
18 19 156
-157 -20
-157 -21
20 21 157
-158 -22
-158 -23
22 23 158
-159 -24
-159 -25
24 25 159
-160 -26
-160 -27
26 27 160
-161 -28
-161 -29
28 29 161
-162 -30
-162 -31
30 31 162
-163 155
-163 156
-155 -156 163
-164 157
-164 158
-157 -158 164
-165 159
-165 160
-159 -160 165
-166 161
-166 162
-161 -162 166
-167 163
-167 164
-163 -164 167
-168 165
-168 166
-165 -166 168
-169 167
-169 168
-167 -168 169
-170 -88
-170 169
88 -169 170
-171 73
-171 -152
-73 152 171
-172 1
-172 -73
-1 73 172
-173 -58
-173 73
58 -73 173
-174 -172
-174 -173
172 173 174
-175 2
-175 -73
-2 73 175
-176 17
-176 73
-17 -73 176
-177 -175
-177 -176
175 176 177
-178 3
-178 -73
-3 73 178
-179 18
-179 73
-18 -73 179
-180 -178
-180 -179
178 179 180
-181 4
-181 -73
-4 73 181
-182 19
-182 73
-19 -73 182
-183 -181
-183 -182
181 182 183
-184 5
-184 -73
-5 73 184
-185 20
-185 73
-20 -73 185
-186 -184
-186 -185
184 185 186
-187 6
-187 -73
-6 73 187
-188 21
-188 73
-21 -73 188
-189 -187
-189 -188
187 188 189
-190 7
-190 -73
-7 73 190
-191 22
-191 73
-22 -73 191
-192 -190
-192 -191
190 191 192
-193 8
-193 -73
-8 73 193
-194 23
-194 73
-23 -73 194
-195 -193
-195 -194
193 194 195
-196 9
-196 -73
-9 73 196
-197 24
-197 73
-24 -73 197
-198 -196
-198 -197
196 197 198
-199 10
-199 -73
-10 73 199
-200 25
-200 73
-25 -73 200
-201 -199
-201 -200
199 200 201
-202 11
-202 -73
-11 73 202
-203 26
-203 73
-26 -73 203
-204 -202
-204 -203
202 203 204
-205 12
-205 -73
-12 73 205
-206 27
-206 73
-27 -73 206
-207 -205
-207 -206
205 206 207
-208 13
-208 -73
-13 73 208
-209 28
-209 73
-28 -73 209
-210 -208
-210 -209
208 209 210
-211 14
-211 -73
-14 73 211
-212 29
-212 73
-29 -73 212
-213 -211
-213 -212
211 212 213
-214 15
-214 -73
-15 73 214
-215 30
-215 73
-30 -73 215
-216 -214
-216 -215
214 215 216
-217 16
-217 -73
-16 73 217
-218 31
-218 73
-31 -73 218
-219 -217
-219 -218
217 218 219
-220 33
-220 73
-33 -73 220
-221 -172
-221 -220
172 220 221
-222 34
-222 73
-34 -73 222
-223 -175
-223 -222
175 222 223
-224 35
-224 73
-35 -73 224
-225 -178
-225 -224
178 224 225
-226 36
-226 73
-36 -73 226
-227 -181
-227 -226
181 226 227
-228 37
-228 73
-37 -73 228
-229 -184
-229 -228
184 228 229
-230 38
-230 73
-38 -73 230
-231 -187
-231 -230
187 230 231
-232 39
-232 73
-39 -73 232
-233 -190
-233 -232
190 232 233
-234 40
-234 73
-40 -73 234
-235 -193
-235 -234
193 234 235
-236 41
-236 73
-41 -73 236
-237 -196
-237 -236
196 236 237
-238 42
-238 73
-42 -73 238
-239 -199
-239 -238
199 238 239
-240 43
-240 73
-43 -73 240
-241 -202
-241 -240
202 240 241
-242 44
-242 73
-44 -73 242
-243 -205
-243 -242
205 242 243
-244 45
-244 73
-45 -73 244
-245 -208
-245 -244
208 244 245
-246 46
-246 73
-46 -73 246
-247 -211
-247 -246
211 246 247
-248 47
-248 73
-47 -73 248
-249 -214
-249 -248
214 248 249
-250 48
-250 73
-48 -73 250
-251 -217
-251 -250
217 250 251
-252 -49
-252 171
49 -171 252
-253 -154
-253 -170
154 170 253
-253
